
Gurobi 9.5.0 (mac64[x86]) logging started Wed 20 Jul 20:25:01 2022

Set parameter LogFile to value "/Users/nikitabelyak/Dropbox (Aalto)/TSEP/Nordic_case_study/2022 data/optimisation_results/20_Jul_2022_20_25_01.log"
Set parameter Threads to value 6
Set parameter MIPFocus to value 3

Gurobi 9.5.0 (mac64[x86]) logging started Wed 20 Jul 20:25:02 2022

Set parameter LogFile to value "/Users/nikitabelyak/Dropbox (Aalto)/TSEP/Nordic_case_study/2022 data/optimisation_results/20_Jul_2022_20_25_01.log"

Gurobi 9.5.0 (mac64[x86]) logging started Wed 20 Jul 20:25:02 2022

Set parameter LogFile to value "/Users/nikitabelyak/Dropbox (Aalto)/TSEP/Nordic_case_study/2022 data/optimisation_results/20_Jul_2022_20_25_01.log"
Gurobi Optimizer version 9.5.0 build v9.5.0rc5 (mac64[x86])
Thread count: 6 physical cores, 12 logical processors, using up to 6 threads
Optimize a model with 32981 rows, 25625 columns and 98385 nonzeros
Model fingerprint: 0x734f3076
Model has 70 quadratic objective terms
Variable types: 14850 continuous, 10775 integer (10775 binary)
Coefficient statistics:
  Matrix range     [1e-04, 3e+12]
  Objective range  [1e+01, 1e+04]
  QObjective range [1e-04, 7e-02]
  Bounds range     [0e+00, 0e+00]
  RHS range        [2e-02, 1e+11]
Warning: Model contains large matrix coefficient range
Warning: Model contains large rhs
         Consider reformulating model or setting NumericFocus parameter
         to avoid numerical issues.

User MIP start did not produce a new incumbent solution
User MIP start violates constraint R4369 by 6705.600000000

Presolve removed 8778 rows and 6988 columns
Presolve time: 0.61s
Presolved: 24203 rows, 18637 columns, 78207 nonzeros
Presolved model has 70 quadratic objective terms
Variable types: 10432 continuous, 8205 integer (8205 binary)
Root relaxation presolve removed 8216 rows and 8216 columns
Root relaxation presolved: 15987 rows, 10421 columns, 61757 nonzeros
Root relaxation presolved model has 70 quadratic objective terms


Root relaxation: infeasible, 12146 iterations, 0.22 seconds (0.19 work units)

    Nodes    |    Current Node    |     Objective Bounds      |     Work
 Expl Unexpl |  Obj  Depth IntInf | Incumbent    BestBd   Gap | It/Node Time

     0     0 infeasible    0               - infeasible      -     -    0s

Explored 1 nodes (12146 simplex iterations) in 1.01 seconds (0.73 work units)
Thread count was 6 (of 12 available processors)

Solution count 0
No other solutions better than -1e+100

Model is infeasible or unbounded
Best objective -, best bound -, gap -

User-callback calls 955, time in user-callback 0.00 sec
